Normalized Data/p01_16_normalized_splitx10_0.vrp
NAME:p01_16_NORMALIZED_splitx10_
BEST_KNOWN: 0
COMMENT: 0
DIMENSION: 206
CAPACITY: 1000
EDGE_WEIGHT_FORMAT: FUNCTION
EDGE_WEIGHT_TYPE: EXACT_2D
NODE_COORD_SECTION
1 0.00000 0.00000
2 -48 -34
3 -48 -34
4 -48 -34
5 24 44
6 24 44
7 24 44
8 24 44
9 24 44
10 39 -34
11 39 -34
12 39 -34
13 -10 -25
14 -10 -25
15 33 0
16 33 0
17 33 0
18 33 0
19 -3 38
20 -3 38
21 -3 38
22 -3 38
23 -3 38
24 -21 -30
25 -21 -30
26 -21 -30
27 -9 8
28 -9 8
29 -9 8
30 -9 8
31 -9 8
32 29 22
33 29 22
34 29 22
35 29 22
36 29 22
37 29 22
38 32 -13
39 32 -13
40 32 -13
41 32 -13
42 32 -13
43 18 -8
44 18 -8
45 18 -8
46 31 1
47 31 1
48 -13 -39
49 -13 -39
50 -13 -39
51 -20 -36
52 -20 -36
53 34 -1
54 34 -1
55 34 -1
56 -43 9
57 -43 9
58 -43 9
59 -43 9
60 -43 9
61 -43 9
62 -43 9
63 -16 27
64 -16 27
65 -28 16
66 -28 16
67 -28 16
68 -28 16
69 -28 16
70 -28 16
71 34 9
72 34 9
73 8 -24
74 8 -24
75 8 -24
76 -24 -4
77 -24 -4
78 -46 -15
79 -46 -15
80 -46 -15
81 -46 -15
82 -46 -15
83 37 26
84 37 26
85 37 26
86 37 26
87 37 26
88 -6 15
89 -6 15
90 -6 15
91 -6 15
92 1 29
93 1 29
94 1 29
95 1 29
96 1 29
97 1 -47
98 1 -47
99 1 -47
100 1 -47
101 -23 -40
102 -23 -40
103 -23 -40
104 29 -4
105 29 -4
106 29 -4
107 29 -4
108 29 -4
109 29 -4
110 -1 44
111 -1 44
112 -1 44
113 -1 44
114 -1 44
115 -1 44
116 22 42
117 22 42
118 22 42
119 22 42
120 -45 48
121 -45 48
122 -45 48
123 -45 48
124 -45 48
125 -25 -38
126 -25 -38
127 -25 -38
128 -25 -38
129 46 -41
130 46 -41
131 46 -41
132 46 -41
133 27 -37
134 27 -37
135 27 -37
136 27 -37
137 27 -37
138 26 12
139 26 12
140 26 12
141 -44 48
142 -44 48
143 -44 48
144 -8 -22
145 -8 -22
146 -8 -22
147 -8 -22
148 -8 -22
149 -8 -22
150 23 -28
151 23 -28
152 23 -28
153 23 -28
154 41 -39
155 41 -39
156 41 -39
157 41 -39
158 41 -39
159 -3 -40
160 -3 -40
161 -3 -40
162 20 48
163 20 48
164 20 48
165 44 -21
166 44 -21
167 44 -21
168 41 -29
169 41 -29
170 41 -29
171 41 -29
172 41 -29
173 41 -29
174 -47 -14
175 -47 -14
176 -47 -14
177 -47 -14
178 38 -38
179 38 -38
180 38 -38
181 38 -38
182 38 -38
183 1 -39
184 1 -39
185 1 -39
186 46 -44
187 46 -44
188 46 -44
189 46 -44
190 46 -44
191 46 -44
192 -22 41
193 -22 41
194 -22 41
195 -22 41
196 -22 41
197 -11 -47
198 -11 -47
199 -11 -47
200 -11 -47
201 -11 -47
202 27 -27
203 27 -27
204 27 -27
205 27 -27
206 27 -27
DEMAND_SECTION
1 0
2 200
3 100
4 50
5 200
6 50
7 10
8 10
9 10
10 200
11 200
12 10
13 200
14 100
15 200
16 10
17 10
18 10
19 200
20 50
21 10
22 10
23 10
24 200
25 50
26 10
27 200
28 100
29 10
30 10
31 10
32 200
33 50
34 10
35 10
36 10
37 10
38 200
39 100
40 10
41 10
42 10
43 200
44 200
45 50
46 200
47 200
48 100
49 50
50 10
51 200
52 100
53 200
54 200
55 100
56 200
57 100
58 50
59 10
60 10
61 10
62 10
63 200
64 100
65 200
66 100
67 50
68 10
69 10
70 10
71 100
72 50
73 200
74 100
75 50
76 200
77 10
78 100
79 50
80 10
81 10
82 10
83 200
84 200
85 10
86 10
87 10
88 200
89 10
90 10
91 10
92 200
93 100
94 50
95 10
96 10
97 200
98 50
99 10
100 10
101 200
102 200
103 10
104 200
105 200
106 50
107 10
108 10
109 10
110 200
111 200
112 50
113 10
114 10
115 10
116 200
117 10
118 10
119 10
120 200
121 10
122 10
123 10
124 10
125 200
126 100
127 50
128 10
129 200
130 50
131 10
132 10
133 200
134 100
135 50
136 10
137 10
138 200
139 100
140 10
141 200
142 100
143 50
144 200
145 50
146 10
147 10
148 10
149 10
150 200
151 200
152 50
153 10
154 200
155 100
156 10
157 10
158 10
159 200
160 200
161 50
162 200
163 200
164 100
165 200
166 100
167 50
168 200
169 100
170 10
171 10
172 10
173 10
174 200
175 200
176 50
177 10
178 200
179 200
180 50
181 10
182 10
183 200
184 200
185 10
186 200
187 200
188 50
189 10
190 10
191 10
192 200
193 100
194 50
195 10
196 10
197 200
198 100
199 10
200 10
201 10
202 100
203 50
204 10
205 10
206 10
DEPOT_SECTION
1
-1
EOF