Normalized Data/p01_16_normalized_splitx10_0.sol
205 -2 1 3 78 80 77 79 81 175 174 173 176 -5 6 7 4 8 84 86 82 85 83 34 33 31 36 32 35 -9 11 10 156 154 157 179 178 177 181 180 -16 17 14 15 54 52 53 -21 20 19 18 22 113 110 111 109 112 114 94 92 95 93 -25 24 23 51 13 12 146 144 143 147 145 148 -26 27 28 29 30 62 63 88 89 90 87 -41 40 39 37 38 165 166 164 167 169 170 168 -44 42 43 104 107 105 103 108 106 -46 45 70 71 137 139 138 -47 48 49 199 197 200 196 198 96 99 97 98 183 184 -50 102 101 100 124 126 127 125 -67 68 69 64 65 66 58 60 55 61 57 56 59 76 75 -74 73 72 182 159 158 160 -91 161 162 163 116 118 115 117 -123 121 120 119 122 142 141 140 191 195 193 194 192 -149 152 150 151 133 134 136 135 132 201 202 205 -171 172 131 130 128 129 185 187 186 190 189 188 153 155 203 204 0 





OBJ=
1766.216
BEST_KNOWN=
0.000